c ind 10 101 107 110 120 123 13 133 136 146 0
c ind 149 159 162 172 175 185 188 198 201 211 0
c ind 214 224 227 237 24 240 250 253 263 266 0
c ind 27 276 279 29 295 306 310 315 320 325 0
c ind 33 330 335 340 355 359 364 369 374 379 0
c ind 38 384 389 408 412 417 42 422 427 432 0
c ind 437 442 46 5 50 54 6 69 9 91 0
c ind 94 98 0
p cnf 737 2310
-1 -2 11 0
-1 2 510 0
-100 -101 0
-102 13 0
-102 93 0
-103 91 0
-103 92 0
-104 -105 27 0
-104 -27 105 0
-105 -106 -112 0
-105 106 112 0
-106 -107 -108 0
-106 107 108 0
-108 -109 -111 0
-108 109 111 0
-109 -110 0
-11 -12 14 0
-11 12 393 0
-111 100 0
-111 102 0
-112 113 116 0
-113 114 115 0
-114 98 0
-114 99 0
-115 103 0
-115 99 0
-116 103 0
-116 98 0
-117 -118 27 0
-117 -27 118 0
-118 -119 -125 0
-118 119 125 0
-119 -120 -121 0
-119 120 121 0
-12 -13 9 0
-12 -9 13 0
-121 -122 -124 0
-121 122 124 0
-122 -123 0
-124 109 0
-124 111 0
-125 126 129 0
-126 127 128 0
-127 107 0
-127 108 0
-128 108 0
-128 112 0
-129 107 0
-129 112 0
-130 -131 27 0
-130 -27 131 0
-131 -132 -138 0
-131 132 138 0
-132 -133 -134 0
-132 133 134 0
-134 -135 -137 0
-134 135 137 0
-135 -136 0
-137 122 0
-137 124 0
-138 139 142 0
-139 140 141 0
-14 -2 15 0
-14 2 345 0
-140 120 0
-140 121 0
-141 121 0
-141 125 0
-142 120 0
-142 125 0
-143 -144 27 0
-143 -27 144 0
-144 -145 -151 0
-144 145 151 0
-145 -146 -147 0
-145 146 147 0
-147 -148 -150 0
-147 148 150 0
-148 -149 0
-15 -12 16 0
-15 12 57 0
-150 135 0
-150 137 0
-151 152 155 0
-152 153 154 0
-153 133 0
-153 134 0
-154 134 0
-154 138 0
-155 133 0
-155 138 0
-156 -157 27 0
-156 -27 157 0
-157 -158 -164 0
-157 158 164 0
-158 -159 -160 0
-158 159 160 0
-16 17 0
-16 53 0
-160 -161 -163 0
-160 161 163 0
-161 -162 0
-163 148 0
-163 150 0
-164 165 168 0
-165 166 167 0
-166 146 0
-166 147 0
-167 147 0
-167 151 0
-168 146 0
-168 151 0
-169 -170 27 0
-169 -27 170 0
-17 18 0
-17 49 0
-170 -171 -177 0
-170 171 177 0
-171 -172 -173 0
-171 172 173 0
-173 -174 -176 0
-173 174 176 0
-174 -175 0
-176 161 0
-176 163 0
-177 178 181 0
-178 179 180 0
-179 159 0
-179 160 0
-18 19 0
-18 45 0
-180 160 0
-180 164 0
-181 159 0
-181 164 0
-182 -183 27 0
-182 -27 183 0
-183 -184 -190 0
-183 184 190 0
-184 -185 -186 0
-184 185 186 0
-186 -187 -189 0
-186 187 189 0
-187 -188 0
-189 174 0
-189 176 0
-19 20 0
-19 41 0
-190 191 194 0
-191 192 193 0
-192 172 0
-192 173 0
-193 173 0
-193 177 0
-194 172 0
-194 177 0
-195 -196 27 0
-195 -27 196 0
-196 -197 -203 0
-196 197 203 0
-197 -198 -199 0
-197 198 199 0
-199 -200 -202 0
-199 200 202 0
-2 3 7 0
-20 21 0
-20 37 0
-200 -201 0
-202 187 0
-202 189 0
-203 204 207 0
-204 205 206 0
-205 185 0
-205 186 0
-206 186 0
-206 190 0
-207 185 0
-207 190 0
-208 -209 27 0
-208 -27 209 0
-209 -210 -216 0
-209 210 216 0
-21 22 0
-21 32 0
-210 -211 -212 0
-210 211 212 0
-212 -213 -215 0
-212 213 215 0
-213 -214 0
-215 200 0
-215 202 0
-216 217 220 0
-217 218 219 0
-218 198 0
-218 199 0
-219 199 0
-219 203 0
-22 23 0
-22 28 0
-220 198 0
-220 203 0
-221 -222 27 0
-221 -27 222 0
-222 -223 -229 0
-222 223 229 0
-223 -224 -225 0
-223 224 225 0
-225 -226 -228 0
-225 226 228 0
-226 -227 0
-228 213 0
-228 215 0
-229 230 233 0
-23 -24 25 0
-23 -25 24 0
-230 231 232 0
-231 211 0
-231 212 0
-232 212 0
-232 216 0
-233 211 0
-233 216 0
-234 -235 27 0
-234 -27 235 0
-235 -236 -242 0
-235 236 242 0
-236 -237 -238 0
-236 237 238 0
-238 -239 -241 0
-238 239 241 0
-239 -240 0
-241 226 0
-241 228 0
-242 243 246 0
-243 244 245 0
-244 224 0
-244 225 0
-245 225 0
-245 229 0
-246 224 0
-246 229 0
-247 -248 27 0
-247 -27 248 0
-248 -249 -255 0
-248 249 255 0
-249 -250 -251 0
-249 250 251 0
-25 -26 -27 0
-25 26 27 0
-251 -252 -254 0
-251 252 254 0
-252 -253 0
-254 239 0
-254 241 0
-255 256 259 0
-256 257 258 0
-257 237 0
-257 238 0
-258 238 0
-258 242 0
-259 237 0
-259 242 0
-26 -27 -13 0
-26 27 13 0
-260 -261 27 0
-260 -27 261 0
-261 -262 -268 0
-261 262 268 0
-262 -263 -264 0
-262 263 264 0
-264 -265 -267 0
-264 265 267 0
-265 -266 0
-267 252 0
-267 254 0
-268 269 272 0
-269 270 271 0
-27 0
-270 250 0
-270 251 0
-271 251 0
-271 255 0
-272 250 0
-272 255 0
-273 -27 274 0
-273 -274 27 0
-274 -275 -281 0
-274 275 281 0
-275 -276 -277 0
-275 276 277 0
-277 -278 -280 0
-277 278 280 0
-278 -279 0
-28 -29 30 0
-28 -30 29 0
-280 265 0
-280 267 0
-281 282 285 0
-282 283 284 0
-283 263 0
-283 264 0
-284 264 0
-284 268 0
-285 263 0
-285 268 0
-286 -287 27 0
-286 287 13 0
-287 288 0
-287 70 0
-288 289 0
-288 70 0
-289 290 0
-289 70 0
-290 291 0
-290 70 0
-291 292 0
-291 70 0
-292 293 0
-292 70 0
-293 294 0
-293 70 0
-294 -27 295 0
-294 -295 27 0
-296 297 0
-296 337 0
-297 298 0
-297 332 0
-298 299 0
-298 327 0
-299 300 0
-299 322 0
-3 -4 0
-30 -26 -31 0
-30 26 31 0
-300 301 0
-300 317 0
-301 302 0
-301 312 0
-302 303 0
-302 307 0
-303 -24 304 0
-303 -304 24 0
-304 -305 -27 0
-304 305 27 0
-305 -306 -13 0
-305 306 13 0
-307 -29 308 0
-307 -308 29 0
-308 -309 -311 0
-308 309 311 0
-309 -310 -13 0
-309 310 13 0
-31 13 0
-31 27 0
-311 306 27 0
-312 -313 33 0
-312 -33 313 0
-313 -314 -316 0
-313 314 316 0
-314 -315 -27 0
-314 315 27 0
-316 310 311 0
-317 -318 38 0
-317 -38 318 0
-318 -319 -321 0
-318 319 321 0
-319 -320 -27 0
-319 320 27 0
-32 -33 34 0
-32 -34 33 0
-321 315 0
-321 316 0
-322 -323 42 0
-322 -42 323 0
-323 -324 -326 0
-323 324 326 0
-324 -325 -27 0
-324 325 27 0
-326 320 0
-326 321 0
-327 -328 46 0
-327 -46 328 0
-328 -329 -331 0
-328 329 331 0
-329 -330 -13 0
-329 330 13 0
-331 325 0
-331 326 0
-332 -333 50 0
-332 -50 333 0
-333 -334 -336 0
-333 334 336 0
-334 -335 -27 0
-334 335 27 0
-336 330 331 0
-337 -338 54 0
-337 -54 338 0
-338 -339 -341 0
-338 339 341 0
-339 -340 -27 0
-339 340 27 0
-34 -35 -36 0
-34 35 36 0
-341 335 0
-341 336 0
-342 -343 345 0
-342 343 391 0
-343 -73 27 0
-343 73 344 0
-344 -287 13 0
-344 287 27 0
-345 346 0
-345 386 0
-346 347 0
-346 381 0
-347 348 0
-347 376 0
-348 349 0
-348 371 0
-349 350 0
-349 366 0
-35 -27 -27 0
-35 27 27 0
-350 351 0
-350 361 0
-351 352 0
-351 356 0
-352 -24 353 0
-352 -353 24 0
-353 -354 -27 0
-353 354 27 0
-354 -355 -13 0
-354 355 13 0
-356 -29 357 0
-356 -357 29 0
-357 -358 -360 0
-357 358 360 0
-358 -359 -13 0
-358 359 13 0
-36 13 0
-36 31 0
-360 355 27 0
-361 -33 362 0
-361 -362 33 0
-362 -363 -365 0
-362 363 365 0
-363 -364 -27 0
-363 364 27 0
-365 359 360 0
-366 -367 38 0
-366 -38 367 0
-367 -368 -370 0
-367 368 370 0
-368 -369 -27 0
-368 369 27 0
-37 -38 39 0
-37 -39 38 0
-370 364 0
-370 365 0
-371 -372 42 0
-371 -42 372 0
-372 -373 -375 0
-372 373 375 0
-373 -374 -27 0
-373 374 27 0
-375 369 0
-375 370 0
-376 -377 46 0
-376 -46 377 0
-377 -378 -380 0
-377 378 380 0
-378 -379 -13 0
-378 379 13 0
-380 374 0
-380 375 0
-381 -382 50 0
-381 -50 382 0
-382 -383 -385 0
-382 383 385 0
-383 -384 -27 0
-383 384 27 0
-385 379 380 0
-386 -387 54 0
-386 -54 387 0
-387 -388 -390 0
-387 388 390 0
-388 -389 -27 0
-388 389 27 0
-39 -35 -40 0
-39 35 40 0
-390 384 0
-390 385 0
-391 -392 296 0
-391 392 345 0
-392 -73 13 0
-392 73 27 0
-393 -58 394 0
-393 58 396 0
-394 -61 14 0
-394 61 395 0
-395 -72 396 0
-395 72 573 0
-396 -2 397 0
-396 2 510 0
-397 -12 398 0
-397 12 444 0
-398 399 0
-398 439 0
-399 400 0
-399 434 0
-4 -5 6 0
-4 -6 5 0
-40 27 0
-40 36 0
-400 401 0
-400 429 0
-401 402 0
-401 424 0
-402 403 0
-402 419 0
-403 404 0
-403 414 0
-404 405 0
-404 409 0
-405 -24 406 0
-405 -406 24 0
-406 -407 -27 0
-406 407 27 0
-407 -27 -408 0
-407 27 408 0
-409 -29 410 0
-409 -410 29 0
-41 -42 43 0
-41 -43 42 0
-410 -411 -413 0
-410 411 413 0
-411 -27 -412 0
-411 27 412 0
-413 27 0
-413 408 0
-414 -33 415 0
-414 -415 33 0
-415 -416 -418 0
-415 416 418 0
-416 -27 -417 0
-416 27 417 0
-418 412 0
-418 413 0
-419 -38 420 0
-419 -420 38 0
-420 -421 -423 0
-420 421 423 0
-421 -27 -422 0
-421 27 422 0
-423 417 0
-423 418 0
-424 -42 425 0
-424 -425 42 0
-425 -426 -428 0
-425 426 428 0
-426 -27 -427 0
-426 27 427 0
-428 422 0
-428 423 0
-429 -430 46 0
-429 -46 430 0
-43 -35 -44 0
-43 35 44 0
-430 -431 -433 0
-430 431 433 0
-431 -27 -432 0
-431 27 432 0
-433 427 0
-433 428 0
-434 -435 50 0
-434 -50 435 0
-435 -436 -438 0
-435 436 438 0
-436 -27 -437 0
-436 27 437 0
-438 432 0
-438 433 0
-439 -440 54 0
-439 -54 440 0
-44 27 0
-44 40 0
-440 -441 -443 0
-440 441 443 0
-441 -27 -442 0
-441 27 442 0
-443 437 0
-443 438 0
-444 -58 445 0
-444 58 510 0
-445 -61 398 0
-445 61 446 0
-446 -72 447 0
-446 72 509 0
-447 448 0
-447 501 0
-448 449 0
-448 493 0
-449 450 0
-449 485 0
-45 -46 47 0
-45 -47 46 0
-450 451 0
-450 477 0
-451 452 0
-451 469 0
-452 453 0
-452 461 0
-453 454 0
-453 457 0
-454 -24 455 0
-454 -455 24 0
-455 -456 -27 0
-455 456 27 0
-456 -306 -408 0
-456 306 408 0
-457 -29 458 0
-457 -458 29 0
-458 -459 -460 0
-458 459 460 0
-459 -310 -412 0
-459 310 412 0
-460 306 0
-460 408 0
-461 -33 462 0
-461 -462 33 0
-462 -463 -464 0
-462 463 464 0
-463 -315 -417 0
-463 315 417 0
-464 465 468 0
-465 466 467 0
-466 310 0
-466 412 0
-467 412 0
-467 460 0
-468 310 0
-468 460 0
-469 -38 470 0
-469 -470 38 0
-47 -26 -48 0
-47 26 48 0
-470 -471 -472 0
-470 471 472 0
-471 -320 -422 0
-471 320 422 0
-472 473 476 0
-473 474 475 0
-474 315 0
-474 417 0
-475 417 0
-475 464 0
-476 315 0
-476 464 0
-477 -42 478 0
-477 -478 42 0
-478 -479 -480 0
-478 479 480 0
-479 -325 -427 0
-479 325 427 0
-48 27 0
-48 44 0
-480 481 484 0
-481 482 483 0
-482 320 0
-482 422 0
-483 422 0
-483 472 0
-484 320 0
-484 472 0
-485 -46 486 0
-485 -486 46 0
-486 -487 -488 0
-486 487 488 0
-487 -330 -432 0
-487 330 432 0
-488 489 492 0
-489 490 491 0
-49 -50 51 0
-49 -51 50 0
-490 325 0
-490 427 0
-491 427 0
-491 480 0
-492 325 0
-492 480 0
-493 -494 50 0
-493 -50 494 0
-494 -495 -496 0
-494 495 496 0
-495 -335 -437 0
-495 335 437 0
-496 497 500 0
-497 498 499 0
-498 330 0
-498 432 0
-499 432 0
-499 488 0
-500 330 0
-500 488 0
-501 -502 54 0
-501 -54 502 0
-502 -503 -504 0
-502 503 504 0
-503 -340 -442 0
-503 340 442 0
-504 505 508 0
-505 506 507 0
-506 335 0
-506 437 0
-507 437 0
-507 496 0
-508 335 0
-508 496 0
-509 -343 510 0
-509 343 572 0
-51 -35 -52 0
-51 35 52 0
-510 511 0
-510 564 0
-511 512 0
-511 556 0
-512 513 0
-512 548 0
-513 514 0
-513 540 0
-514 515 0
-514 532 0
-515 516 0
-515 524 0
-516 517 0
-516 520 0
-517 -24 518 0
-517 -518 24 0
-518 -519 -27 0
-518 519 27 0
-519 -355 -408 0
-519 355 408 0
-52 13 0
-52 48 0
-520 -29 521 0
-520 -521 29 0
-521 -522 -523 0
-521 522 523 0
-522 -359 -412 0
-522 359 412 0
-523 355 0
-523 408 0
-524 -33 525 0
-524 -525 33 0
-525 -526 -527 0
-525 526 527 0
-526 -364 -417 0
-526 364 417 0
-527 528 531 0
-528 529 530 0
-529 359 0
-529 412 0
-53 -54 55 0
-53 -55 54 0
-530 412 0
-530 523 0
-531 359 0
-531 523 0
-532 -38 533 0
-532 -533 38 0
-533 -534 -535 0
-533 534 535 0
-534 -369 -422 0
-534 369 422 0
-535 536 539 0
-536 537 538 0
-537 364 0
-537 417 0
-538 417 0
-538 527 0
-539 364 0
-539 527 0
-540 -42 541 0
-540 -541 42 0
-541 -542 -543 0
-541 542 543 0
-542 -374 -427 0
-542 374 427 0
-543 544 547 0
-544 545 546 0
-545 369 0
-545 422 0
-546 422 0
-546 535 0
-547 369 0
-547 535 0
-548 -46 549 0
-548 -549 46 0
-549 -550 -551 0
-549 550 551 0
-55 -35 -56 0
-55 35 56 0
-550 -379 -432 0
-550 379 432 0
-551 552 555 0
-552 553 554 0
-553 374 0
-553 427 0
-554 427 0
-554 543 0
-555 374 0
-555 543 0
-556 -50 557 0
-556 -557 50 0
-557 -558 -559 0
-557 558 559 0
-558 -384 -437 0
-558 384 437 0
-559 560 563 0
-56 27 0
-56 52 0
-560 561 562 0
-561 379 0
-561 432 0
-562 432 0
-562 551 0
-563 379 0
-563 551 0
-564 -54 565 0
-564 -565 54 0
-565 -566 -567 0
-565 566 567 0
-566 -389 -442 0
-566 389 442 0
-567 568 571 0
-568 569 570 0
-569 384 0
-569 437 0
-57 -58 60 0
-57 58 345 0
-570 437 0
-570 559 0
-571 384 0
-571 559 0
-572 -392 447 0
-572 392 510 0
-573 -343 574 0
-573 343 737 0
-574 -2 575 0
-574 2 674 0
-575 -12 576 0
-575 12 614 0
-576 577 0
-576 610 0
-577 578 0
-577 606 0
-578 579 0
-578 602 0
-579 580 0
-579 598 0
-58 3 0
-58 59 0
-580 581 0
-580 594 0
-581 582 0
-581 590 0
-582 583 0
-582 586 0
-583 -24 584 0
-583 -584 24 0
-584 -585 -27 0
-584 585 27 0
-585 -27 -306 0
-585 27 306 0
-586 -29 587 0
-586 -587 29 0
-587 -588 -589 0
-587 588 589 0
-588 -27 -310 0
-588 27 310 0
-589 27 0
-589 306 0
-59 -13 5 0
-59 -5 13 0
-590 -33 591 0
-590 -591 33 0
-591 -592 -593 0
-591 592 593 0
-592 -27 -315 0
-592 27 315 0
-593 310 0
-593 589 0
-594 -38 595 0
-594 -595 38 0
-595 -596 -597 0
-595 596 597 0
-596 -27 -320 0
-596 27 320 0
-597 315 0
-597 593 0
-598 -42 599 0
-598 -599 42 0
-599 -600 -601 0
-599 600 601 0
-60 -61 16 0
-60 61 71 0
-600 -27 -325 0
-600 27 325 0
-601 320 0
-601 597 0
-602 -46 603 0
-602 -603 46 0
-603 -604 -605 0
-603 604 605 0
-604 -27 -330 0
-604 27 330 0
-605 325 0
-605 601 0
-606 -50 607 0
-606 -607 50 0
-607 -608 -609 0
-607 608 609 0
-608 -27 -335 0
-608 27 335 0
-609 330 0
-609 605 0
-61 62 0
-61 70 0
-610 -54 611 0
-610 -611 54 0
-611 -612 -613 0
-611 612 613 0
-612 -27 -340 0
-612 27 340 0
-613 335 0
-613 609 0
-614 -58 615 0
-614 58 674 0
-615 -61 576 0
-615 61 616 0
-616 -72 617 0
-616 72 673 0
-617 618 0
-617 666 0
-618 619 0
-618 659 0
-619 620 0
-619 652 0
-62 63 0
-62 70 0
-620 621 0
-620 645 0
-621 622 0
-621 638 0
-622 623 0
-622 631 0
-623 624 0
-623 627 0
-624 -24 625 0
-624 -625 24 0
-625 -626 -27 0
-625 626 27 0
-626 -306 -306 0
-626 306 306 0
-627 -29 628 0
-627 -628 29 0
-628 -629 -630 0
-628 629 630 0
-629 -310 -310 0
-629 310 310 0
-63 64 0
-63 70 0
-630 306 0
-631 -33 632 0
-631 -632 33 0
-632 -633 -634 0
-632 633 634 0
-633 -315 -315 0
-633 315 315 0
-634 635 637 0
-635 636 637 0
-636 310 0
-637 310 0
-637 630 0
-638 -38 639 0
-638 -639 38 0
-639 -640 -641 0
-639 640 641 0
-64 65 0
-64 70 0
-640 -320 -320 0
-640 320 320 0
-641 642 644 0
-642 643 644 0
-643 315 0
-644 315 0
-644 634 0
-645 -42 646 0
-645 -646 42 0
-646 -647 -648 0
-646 647 648 0
-647 -325 -325 0
-647 325 325 0
-648 649 651 0
-649 650 651 0
-65 66 0
-65 70 0
-650 320 0
-651 320 0
-651 641 0
-652 -46 653 0
-652 -653 46 0
-653 -654 -655 0
-653 654 655 0
-654 -330 -330 0
-654 330 330 0
-655 656 658 0
-656 657 658 0
-657 325 0
-658 325 0
-658 648 0
-659 -50 660 0
-659 -660 50 0
-66 67 0
-66 70 0
-660 -661 -662 0
-660 661 662 0
-661 -335 -335 0
-661 335 335 0
-662 663 665 0
-663 664 665 0
-664 330 0
-665 330 0
-665 655 0
-666 -54 667 0
-666 -667 54 0
-667 -668 -669 0
-667 668 669 0
-668 -340 -340 0
-668 340 340 0
-669 670 672 0
-67 68 0
-67 70 0
-670 671 672 0
-671 335 0
-672 335 0
-672 662 0
-673 -343 674 0
-673 343 736 0
-674 675 0
-674 728 0
-675 676 0
-675 720 0
-676 677 0
-676 712 0
-677 678 0
-677 704 0
-678 679 0
-678 696 0
-679 680 0
-679 688 0
-68 -27 69 0
-68 -69 27 0
-680 681 0
-680 684 0
-681 -24 682 0
-681 -682 24 0
-682 -683 -27 0
-682 683 27 0
-683 -355 -306 0
-683 355 306 0
-684 -29 685 0
-684 -685 29 0
-685 -686 -687 0
-685 686 687 0
-686 -359 -310 0
-686 359 310 0
-687 306 0
-687 355 0
-688 -33 689 0
-688 -689 33 0
-689 -690 -691 0
-689 690 691 0
-690 -364 -315 0
-690 364 315 0
-691 692 695 0
-692 693 694 0
-693 310 0
-693 359 0
-694 310 0
-694 687 0
-695 359 0
-695 687 0
-696 -38 697 0
-696 -697 38 0
-697 -698 -699 0
-697 698 699 0
-698 -369 -320 0
-698 369 320 0
-699 700 703 0
-7 -8 0
-70 -27 27 0
-700 701 702 0
-701 315 0
-701 364 0
-702 315 0
-702 691 0
-703 364 0
-703 691 0
-704 -42 705 0
-704 -705 42 0
-705 -706 -707 0
-705 706 707 0
-706 -374 -325 0
-706 374 325 0
-707 708 711 0
-708 709 710 0
-709 320 0
-709 369 0
-71 -72 296 0
-71 72 342 0
-710 320 0
-710 699 0
-711 369 0
-711 699 0
-712 -46 713 0
-712 -713 46 0
-713 -714 -715 0
-713 714 715 0
-714 -379 -330 0
-714 379 330 0
-715 716 719 0
-716 717 718 0
-717 325 0
-717 374 0
-718 325 0
-718 707 0
-719 374 0
-719 707 0
-72 -73 27 0
-72 73 286 0
-720 -50 721 0
-720 -721 50 0
-721 -722 -723 0
-721 722 723 0
-722 -384 -335 0
-722 384 335 0
-723 724 727 0
-724 725 726 0
-725 330 0
-725 379 0
-726 330 0
-726 715 0
-727 379 0
-727 715 0
-728 -54 729 0
-728 -729 54 0
-729 -730 -731 0
-729 730 731 0
-73 273 0
-73 74 0
-730 -389 -340 0
-730 389 340 0
-731 732 735 0
-732 733 734 0
-733 335 0
-733 384 0
-734 335 0
-734 723 0
-735 384 0
-735 723 0
-736 -392 617 0
-736 392 674 0
-737 -392 574 0
-737 392 396 0
-74 260 0
-74 75 0
-75 247 0
-75 76 0
-76 234 0
-76 77 0
-77 221 0
-77 78 0
-78 208 0
-78 79 0
-79 195 0
-79 80 0
-8 -10 9 0
-8 -9 10 0
-80 182 0
-80 81 0
-81 169 0
-81 82 0
-82 156 0
-82 83 0
-83 143 0
-83 84 0
-84 130 0
-84 85 0
-85 117 0
-85 86 0
-86 104 0
-86 87 0
-87 88 0
-87 95 0
-88 -27 89 0
-88 -89 27 0
-89 -90 -27 0
-89 90 27 0
-90 -91 -92 0
-90 91 92 0
-92 -93 -13 0
-92 93 13 0
-93 -94 0
-95 -27 96 0
-95 -96 27 0
-96 -97 -103 0
-96 97 103 0
-97 -98 -99 0
-97 98 99 0
-99 -100 -102 0
-99 100 102 0
1 -11 -510 0
1 -2 -11 0
1 0
1 2 -510 0
100 101 0
102 -93 -13 0
103 -91 -92 0
104 -105 -27 0
104 105 27 0
105 -106 112 0
105 -112 106 0
106 -107 108 0
106 -108 107 0
108 -109 111 0
108 -111 109 0
109 110 0
11 -12 -14 0
11 -14 -393 0
11 12 -393 0
111 -100 -102 0
112 -113 0
112 -116 0
113 -114 0
113 -115 0
114 -98 -99 0
115 -99 -103 0
116 -98 -103 0
117 -118 -27 0
117 118 27 0
118 -119 125 0
118 -125 119 0
119 -120 121 0
119 -121 120 0
12 -9 -13 0
12 9 13 0
121 -122 124 0
121 -124 122 0
122 123 0
124 -109 -111 0
125 -126 0
125 -129 0
126 -127 0
126 -128 0
127 -107 -108 0
128 -108 -112 0
129 -107 -112 0
13 0
130 -131 -27 0
130 131 27 0
131 -132 138 0
131 -138 132 0
132 -133 134 0
132 -134 133 0
134 -135 137 0
134 -137 135 0
135 136 0
137 -122 -124 0
138 -139 0
138 -142 0
139 -140 0
139 -141 0
14 -15 -345 0
14 -2 -15 0
14 2 -345 0
140 -120 -121 0
141 -121 -125 0
142 -120 -125 0
143 -144 -27 0
143 144 27 0
144 -145 151 0
144 -151 145 0
145 -146 147 0
145 -147 146 0
147 -148 150 0
147 -150 148 0
148 149 0
15 -12 -16 0
15 -16 -57 0
15 12 -57 0
150 -135 -137 0
151 -152 0
151 -155 0
152 -153 0
152 -154 0
153 -133 -134 0
154 -134 -138 0
155 -133 -138 0
156 -157 -27 0
156 157 27 0
157 -158 164 0
157 -164 158 0
158 -159 160 0
158 -160 159 0
16 -17 -53 0
160 -161 163 0
160 -163 161 0
161 162 0
163 -148 -150 0
164 -165 0
164 -168 0
165 -166 0
165 -167 0
166 -146 -147 0
167 -147 -151 0
168 -146 -151 0
169 -170 -27 0
169 170 27 0
17 -18 -49 0
170 -171 177 0
170 -177 171 0
171 -172 173 0
171 -173 172 0
173 -174 176 0
173 -176 174 0
174 175 0
176 -161 -163 0
177 -178 0
177 -181 0
178 -179 0
178 -180 0
179 -159 -160 0
18 -19 -45 0
180 -160 -164 0
181 -159 -164 0
182 -183 -27 0
182 183 27 0
183 -184 190 0
183 -190 184 0
184 -185 186 0
184 -186 185 0
186 -187 189 0
186 -189 187 0
187 188 0
189 -174 -176 0
19 -20 -41 0
190 -191 0
190 -194 0
191 -192 0
191 -193 0
192 -172 -173 0
193 -173 -177 0
194 -172 -177 0
195 -196 -27 0
195 196 27 0
196 -197 203 0
196 -203 197 0
197 -198 199 0
197 -199 198 0
199 -200 202 0
199 -202 200 0
2 -3 0
2 -7 0
20 -21 -37 0
200 201 0
202 -187 -189 0
203 -204 0
203 -207 0
204 -205 0
204 -206 0
205 -185 -186 0
206 -186 -190 0
207 -185 -190 0
208 -209 -27 0
208 209 27 0
209 -210 216 0
209 -216 210 0
21 -22 -32 0
210 -211 212 0
210 -212 211 0
212 -213 215 0
212 -215 213 0
213 214 0
215 -200 -202 0
216 -217 0
216 -220 0
217 -218 0
217 -219 0
218 -198 -199 0
219 -199 -203 0
22 -23 -28 0
220 -198 -203 0
221 -222 -27 0
221 222 27 0
222 -223 229 0
222 -229 223 0
223 -224 225 0
223 -225 224 0
225 -226 228 0
225 -228 226 0
226 227 0
228 -213 -215 0
229 -230 0
229 -233 0
23 -24 -25 0
23 24 25 0
230 -231 0
230 -232 0
231 -211 -212 0
232 -212 -216 0
233 -211 -216 0
234 -235 -27 0
234 235 27 0
235 -236 242 0
235 -242 236 0
236 -237 238 0
236 -238 237 0
238 -239 241 0
238 -241 239 0
239 240 0
241 -226 -228 0
242 -243 0
242 -246 0
243 -244 0
243 -245 0
244 -224 -225 0
245 -225 -229 0
246 -224 -229 0
247 -248 -27 0
247 248 27 0
248 -249 255 0
248 -255 249 0
249 -250 251 0
249 -251 250 0
25 -26 27 0
25 -27 26 0
251 -252 254 0
251 -254 252 0
252 253 0
254 -239 -241 0
255 -256 0
255 -259 0
256 -257 0
256 -258 0
257 -237 -238 0
258 -238 -242 0
259 -237 -242 0
26 -13 27 0
26 -27 13 0
260 -261 -27 0
260 261 27 0
261 -262 268 0
261 -268 262 0
262 -263 264 0
262 -264 263 0
264 -265 267 0
264 -267 265 0
265 266 0
267 -252 -254 0
268 -269 0
268 -272 0
269 -270 0
269 -271 0
270 -250 -251 0
271 -251 -255 0
272 -250 -255 0
273 -274 -27 0
273 274 27 0
274 -275 281 0
274 -281 275 0
275 -276 277 0
275 -277 276 0
277 -278 280 0
277 -280 278 0
278 279 0
28 -29 -30 0
28 29 30 0
280 -265 -267 0
281 -282 0
281 -285 0
282 -283 0
282 -284 0
283 -263 -264 0
284 -264 -268 0
285 -263 -268 0
286 -27 -13 0
286 -287 -27 0
286 287 -13 0
287 -288 -70 0
288 -289 -70 0
289 -290 -70 0
290 -291 -70 0
291 -292 -70 0
292 -293 -70 0
293 -294 -70 0
294 -295 -27 0
294 295 27 0
296 -297 -337 0
297 -298 -332 0
298 -299 -327 0
299 -300 -322 0
3 4 0
30 -26 31 0
30 -31 26 0
300 -301 -317 0
301 -302 -312 0
302 -303 -307 0
303 -24 -304 0
303 24 304 0
304 -27 305 0
304 -305 27 0
305 -13 306 0
305 -306 13 0
307 -29 -308 0
307 29 308 0
308 -309 311 0
308 -311 309 0
309 -13 310 0
309 -310 13 0
31 -13 -27 0
311 -27 0
311 -306 0
312 -33 -313 0
312 33 313 0
313 -314 316 0
313 -316 314 0
314 -27 315 0
314 -315 27 0
316 -310 0
316 -311 0
317 -38 -318 0
317 38 318 0
318 -319 321 0
318 -321 319 0
319 -27 320 0
319 -320 27 0
32 -33 -34 0
32 33 34 0
321 -315 -316 0
322 -42 -323 0
322 42 323 0
323 -324 326 0
323 -326 324 0
324 -27 325 0
324 -325 27 0
326 -320 -321 0
327 -46 -328 0
327 46 328 0
328 -329 331 0
328 -331 329 0
329 -13 330 0
329 -330 13 0
331 -325 -326 0
332 -50 -333 0
332 50 333 0
333 -334 336 0
333 -336 334 0
334 -27 335 0
334 -335 27 0
336 -330 0
336 -331 0
337 -54 -338 0
337 54 338 0
338 -339 341 0
338 -341 339 0
339 -27 340 0
339 -340 27 0
34 -35 36 0
34 -36 35 0
341 -335 -336 0
342 -343 -345 0
342 -345 -391 0
342 343 -391 0
343 -27 -344 0
343 -73 -27 0
343 73 -344 0
344 -13 -27 0
344 -287 -13 0
344 287 -27 0
345 -346 -386 0
346 -347 -381 0
347 -348 -376 0
348 -349 -371 0
349 -350 -366 0
35 -27 27 0
350 -351 -361 0
351 -352 -356 0
352 -24 -353 0
352 24 353 0
353 -27 354 0
353 -354 27 0
354 -13 355 0
354 -355 13 0
356 -29 -357 0
356 29 357 0
357 -358 360 0
357 -360 358 0
358 -13 359 0
358 -359 13 0
36 -13 -31 0
360 -27 0
360 -355 0
361 -33 -362 0
361 33 362 0
362 -363 365 0
362 -365 363 0
363 -27 364 0
363 -364 27 0
365 -359 0
365 -360 0
366 -38 -367 0
366 38 367 0
367 -368 370 0
367 -370 368 0
368 -27 369 0
368 -369 27 0
37 -38 -39 0
37 38 39 0
370 -364 -365 0
371 -42 -372 0
371 42 372 0
372 -373 375 0
372 -375 373 0
373 -27 374 0
373 -374 27 0
375 -369 -370 0
376 -46 -377 0
376 46 377 0
377 -378 380 0
377 -380 378 0
378 -13 379 0
378 -379 13 0
380 -374 -375 0
381 -50 -382 0
381 50 382 0
382 -383 385 0
382 -385 383 0
383 -27 384 0
383 -384 27 0
385 -379 0
385 -380 0
386 -54 -387 0
386 54 387 0
387 -388 390 0
387 -390 388 0
388 -27 389 0
388 -389 27 0
39 -35 40 0
39 -40 35 0
390 -384 -385 0
391 -296 -345 0
391 -392 -296 0
391 392 -345 0
392 -13 -27 0
392 -73 -13 0
392 73 -27 0
393 -394 -396 0
393 -58 -394 0
393 58 -396 0
394 -14 -395 0
394 -61 -14 0
394 61 -395 0
395 -396 -573 0
395 -72 -396 0
395 72 -573 0
396 -2 -397 0
396 -397 -510 0
396 2 -510 0
397 -12 -398 0
397 -398 -444 0
397 12 -444 0
398 -399 -439 0
399 -400 -434 0
4 -5 -6 0
4 5 6 0
40 -27 -36 0
400 -401 -429 0
401 -402 -424 0
402 -403 -419 0
403 -404 -414 0
404 -405 -409 0
405 -24 -406 0
405 24 406 0
406 -27 407 0
406 -407 27 0
407 -27 408 0
407 -408 27 0
409 -29 -410 0
409 29 410 0
41 -42 -43 0
41 42 43 0
410 -411 413 0
410 -413 411 0
411 -27 412 0
411 -412 27 0
413 -408 -27 0
414 -33 -415 0
414 33 415 0
415 -416 418 0
415 -418 416 0
416 -27 417 0
416 -417 27 0
418 -412 -413 0
419 -38 -420 0
419 38 420 0
420 -421 423 0
420 -423 421 0
421 -27 422 0
421 -422 27 0
423 -417 -418 0
424 -42 -425 0
424 42 425 0
425 -426 428 0
425 -428 426 0
426 -27 427 0
426 -427 27 0
428 -422 -423 0
429 -46 -430 0
429 46 430 0
43 -35 44 0
43 -44 35 0
430 -431 433 0
430 -433 431 0
431 -27 432 0
431 -432 27 0
433 -427 -428 0
434 -50 -435 0
434 50 435 0
435 -436 438 0
435 -438 436 0
436 -27 437 0
436 -437 27 0
438 -432 -433 0
439 -54 -440 0
439 54 440 0
44 -27 -40 0
440 -441 443 0
440 -443 441 0
441 -27 442 0
441 -442 27 0
443 -437 -438 0
444 -445 -510 0
444 -58 -445 0
444 58 -510 0
445 -398 -446 0
445 -61 -398 0
445 61 -446 0
446 -447 -509 0
446 -72 -447 0
446 72 -509 0
447 -448 -501 0
448 -449 -493 0
449 -450 -485 0
45 -46 -47 0
45 46 47 0
450 -451 -477 0
451 -452 -469 0
452 -453 -461 0
453 -454 -457 0
454 -24 -455 0
454 24 455 0
455 -27 456 0
455 -456 27 0
456 -306 408 0
456 -408 306 0
457 -29 -458 0
457 29 458 0
458 -459 460 0
458 -460 459 0
459 -310 412 0
459 -412 310 0
460 -306 -408 0
461 -33 -462 0
461 33 462 0
462 -463 464 0
462 -464 463 0
463 -315 417 0
463 -417 315 0
464 -465 0
464 -468 0
465 -466 0
465 -467 0
466 -310 -412 0
467 -412 -460 0
468 -310 -460 0
469 -38 -470 0
469 38 470 0
47 -26 48 0
47 -48 26 0
470 -471 472 0
470 -472 471 0
471 -320 422 0
471 -422 320 0
472 -473 0
472 -476 0
473 -474 0
473 -475 0
474 -315 -417 0
475 -417 -464 0
476 -315 -464 0
477 -42 -478 0
477 42 478 0
478 -479 480 0
478 -480 479 0
479 -325 427 0
479 -427 325 0
48 -27 -44 0
480 -481 0
480 -484 0
481 -482 0
481 -483 0
482 -320 -422 0
483 -422 -472 0
484 -320 -472 0
485 -46 -486 0
485 46 486 0
486 -487 488 0
486 -488 487 0
487 -330 432 0
487 -432 330 0
488 -489 0
488 -492 0
489 -490 0
489 -491 0
49 -50 -51 0
49 50 51 0
490 -325 -427 0
491 -427 -480 0
492 -325 -480 0
493 -50 -494 0
493 50 494 0
494 -495 496 0
494 -496 495 0
495 -335 437 0
495 -437 335 0
496 -497 0
496 -500 0
497 -498 0
497 -499 0
498 -330 -432 0
499 -432 -488 0
500 -330 -488 0
501 -54 -502 0
501 54 502 0
502 -503 504 0
502 -504 503 0
503 -340 442 0
503 -442 340 0
504 -505 0
504 -508 0
505 -506 0
505 -507 0
506 -335 -437 0
507 -437 -496 0
508 -335 -496 0
509 -343 -510 0
509 -510 -572 0
509 343 -572 0
51 -35 52 0
51 -52 35 0
510 -511 -564 0
511 -512 -556 0
512 -513 -548 0
513 -514 -540 0
514 -515 -532 0
515 -516 -524 0
516 -517 -520 0
517 -24 -518 0
517 24 518 0
518 -27 519 0
518 -519 27 0
519 -355 408 0
519 -408 355 0
52 -13 -48 0
520 -29 -521 0
520 29 521 0
521 -522 523 0
521 -523 522 0
522 -359 412 0
522 -412 359 0
523 -355 -408 0
524 -33 -525 0
524 33 525 0
525 -526 527 0
525 -527 526 0
526 -364 417 0
526 -417 364 0
527 -528 0
527 -531 0
528 -529 0
528 -530 0
529 -359 -412 0
53 -54 -55 0
53 54 55 0
530 -412 -523 0
531 -359 -523 0
532 -38 -533 0
532 38 533 0
533 -534 535 0
533 -535 534 0
534 -369 422 0
534 -422 369 0
535 -536 0
535 -539 0
536 -537 0
536 -538 0
537 -364 -417 0
538 -417 -527 0
539 -364 -527 0
540 -42 -541 0
540 42 541 0
541 -542 543 0
541 -543 542 0
542 -374 427 0
542 -427 374 0
543 -544 0
543 -547 0
544 -545 0
544 -546 0
545 -369 -422 0
546 -422 -535 0
547 -369 -535 0
548 -46 -549 0
548 46 549 0
549 -550 551 0
549 -551 550 0
55 -35 56 0
55 -56 35 0
550 -379 432 0
550 -432 379 0
551 -552 0
551 -555 0
552 -553 0
552 -554 0
553 -374 -427 0
554 -427 -543 0
555 -374 -543 0
556 -50 -557 0
556 50 557 0
557 -558 559 0
557 -559 558 0
558 -384 437 0
558 -437 384 0
559 -560 0
559 -563 0
56 -27 -52 0
560 -561 0
560 -562 0
561 -379 -432 0
562 -432 -551 0
563 -379 -551 0
564 -54 -565 0
564 54 565 0
565 -566 567 0
565 -567 566 0
566 -389 442 0
566 -442 389 0
567 -568 0
567 -571 0
568 -569 0
568 -570 0
569 -384 -437 0
57 -58 -60 0
57 -60 -345 0
57 58 -345 0
570 -437 -559 0
571 -384 -559 0
572 -392 -447 0
572 -447 -510 0
572 392 -510 0
573 -343 -574 0
573 -574 -737 0
573 343 -737 0
574 -2 -575 0
574 -575 -674 0
574 2 -674 0
575 -12 -576 0
575 -576 -614 0
575 12 -614 0
576 -577 -610 0
577 -578 -606 0
578 -579 -602 0
579 -580 -598 0
58 -3 -59 0
580 -581 -594 0
581 -582 -590 0
582 -583 -586 0
583 -24 -584 0
583 24 584 0
584 -27 585 0
584 -585 27 0
585 -27 306 0
585 -306 27 0
586 -29 -587 0
586 29 587 0
587 -588 589 0
587 -589 588 0
588 -27 310 0
588 -310 27 0
589 -306 -27 0
59 -5 -13 0
59 5 13 0
590 -33 -591 0
590 33 591 0
591 -592 593 0
591 -593 592 0
592 -27 315 0
592 -315 27 0
593 -310 -589 0
594 -38 -595 0
594 38 595 0
595 -596 597 0
595 -597 596 0
596 -27 320 0
596 -320 27 0
597 -315 -593 0
598 -42 -599 0
598 42 599 0
599 -600 601 0
599 -601 600 0
60 -16 -71 0
60 -61 -16 0
60 61 -71 0
600 -27 325 0
600 -325 27 0
601 -320 -597 0
602 -46 -603 0
602 46 603 0
603 -604 605 0
603 -605 604 0
604 -27 330 0
604 -330 27 0
605 -325 -601 0
606 -50 -607 0
606 50 607 0
607 -608 609 0
607 -609 608 0
608 -27 335 0
608 -335 27 0
609 -330 -605 0
61 -62 -70 0
610 -54 -611 0
610 54 611 0
611 -612 613 0
611 -613 612 0
612 -27 340 0
612 -340 27 0
613 -335 -609 0
614 -58 -615 0
614 -615 -674 0
614 58 -674 0
615 -576 -616 0
615 -61 -576 0
615 61 -616 0
616 -617 -673 0
616 -72 -617 0
616 72 -673 0
617 -618 -666 0
618 -619 -659 0
619 -620 -652 0
62 -63 -70 0
620 -621 -645 0
621 -622 -638 0
622 -623 -631 0
623 -624 -627 0
624 -24 -625 0
624 24 625 0
625 -27 626 0
625 -626 27 0
626 -306 306 0
627 -29 -628 0
627 29 628 0
628 -629 630 0
628 -630 629 0
629 -310 310 0
63 -64 -70 0
630 -306 -306 0
631 -33 -632 0
631 33 632 0
632 -633 634 0
632 -634 633 0
633 -315 315 0
634 -635 0
634 -637 0
635 -636 0
635 -637 0
636 -310 -310 0
637 -310 -630 0
638 -38 -639 0
638 38 639 0
639 -640 641 0
639 -641 640 0
64 -65 -70 0
640 -320 320 0
641 -642 0
641 -644 0
642 -643 0
642 -644 0
643 -315 -315 0
644 -315 -634 0
645 -42 -646 0
645 42 646 0
646 -647 648 0
646 -648 647 0
647 -325 325 0
648 -649 0
648 -651 0
649 -650 0
649 -651 0
65 -66 -70 0
650 -320 -320 0
651 -320 -641 0
652 -46 -653 0
652 46 653 0
653 -654 655 0
653 -655 654 0
654 -330 330 0
655 -656 0
655 -658 0
656 -657 0
656 -658 0
657 -325 -325 0
658 -325 -648 0
659 -50 -660 0
659 50 660 0
66 -67 -70 0
660 -661 662 0
660 -662 661 0
661 -335 335 0
662 -663 0
662 -665 0
663 -664 0
663 -665 0
664 -330 -330 0
665 -330 -655 0
666 -54 -667 0
666 54 667 0
667 -668 669 0
667 -669 668 0
668 -340 340 0
669 -670 0
669 -672 0
67 -68 -70 0
670 -671 0
670 -672 0
671 -335 -335 0
672 -335 -662 0
673 -343 -674 0
673 -674 -736 0
673 343 -736 0
674 -675 -728 0
675 -676 -720 0
676 -677 -712 0
677 -678 -704 0
678 -679 -696 0
679 -680 -688 0
68 -69 -27 0
68 69 27 0
680 -681 -684 0
681 -24 -682 0
681 24 682 0
682 -27 683 0
682 -683 27 0
683 -306 355 0
683 -355 306 0
684 -29 -685 0
684 29 685 0
685 -686 687 0
685 -687 686 0
686 -310 359 0
686 -359 310 0
687 -355 -306 0
688 -33 -689 0
688 33 689 0
689 -690 691 0
689 -691 690 0
690 -315 364 0
690 -364 315 0
691 -692 0
691 -695 0
692 -693 0
692 -694 0
693 -359 -310 0
694 -310 -687 0
695 -359 -687 0
696 -38 -697 0
696 38 697 0
697 -698 699 0
697 -699 698 0
698 -320 369 0
698 -369 320 0
699 -700 0
699 -703 0
7 8 0
70 -27 -27 0
70 27 27 0
700 -701 0
700 -702 0
701 -364 -315 0
702 -315 -691 0
703 -364 -691 0
704 -42 -705 0
704 42 705 0
705 -706 707 0
705 -707 706 0
706 -325 374 0
706 -374 325 0
707 -708 0
707 -711 0
708 -709 0
708 -710 0
709 -369 -320 0
71 -296 -342 0
71 -72 -296 0
71 72 -342 0
710 -320 -699 0
711 -369 -699 0
712 -46 -713 0
712 46 713 0
713 -714 715 0
713 -715 714 0
714 -330 379 0
714 -379 330 0
715 -716 0
715 -719 0
716 -717 0
716 -718 0
717 -374 -325 0
718 -325 -707 0
719 -374 -707 0
72 -27 -286 0
72 -73 -27 0
72 73 -286 0
720 -50 -721 0
720 50 721 0
721 -722 723 0
721 -723 722 0
722 -335 384 0
722 -384 335 0
723 -724 0
723 -727 0
724 -725 0
724 -726 0
725 -379 -330 0
726 -330 -715 0
727 -379 -715 0
728 -54 -729 0
728 54 729 0
729 -730 731 0
729 -731 730 0
73 -74 -273 0
730 -340 389 0
730 -389 340 0
731 -732 0
731 -735 0
732 -733 0
732 -734 0
733 -384 -335 0
734 -335 -723 0
735 -384 -723 0
736 -392 -617 0
736 -617 -674 0
736 392 -674 0
737 -392 -574 0
737 -574 -396 0
737 392 -396 0
74 -75 -260 0
75 -76 -247 0
76 -77 -234 0
77 -78 -221 0
78 -79 -208 0
79 -80 -195 0
8 -9 -10 0
8 9 10 0
80 -81 -182 0
81 -82 -169 0
82 -83 -156 0
83 -84 -143 0
84 -85 -130 0
85 -86 -117 0
86 -87 -104 0
87 -88 -95 0
88 -89 -27 0
88 89 27 0
89 -27 90 0
89 -90 27 0
90 -91 92 0
90 -92 91 0
92 -13 93 0
92 -93 13 0
93 94 0
95 -96 -27 0
95 96 27 0
96 -103 97 0
96 -97 103 0
97 -98 99 0
97 -99 98 0
99 -100 102 0
99 -102 100 0
